<number of tasks>
50

<cycle time>
1000

<order strength>
0.204


<task times>
1 531
2 429
3 480
4 580
5 376
6 503
7 496
8 569
9 581
10 326
11 611
12 532
13 590
14 537
15 472
16 256
17 372
18 502
19 405
20 392
21 450
22 674
23 384
24 442
25 606
26 509
27 573
28 644
29 442
30 522
31 542
32 304
33 326
34 738
35 688
36 290
37 539
38 500
39 531
40 389
41 361
42 413
43 506
44 506
45 405
46 534
47 432
48 620
49 591
50 714

<precedence relations>
1,5
1,6
1,8
2,7
2,9
5,10
6,11
7,12
8,14
8,15
8,16
9,13
9,43
9,46
10,20
11,17
12,22
13,18
14,21
15,19
15,46
16,28
16,48
17,25
18,26
19,23
19,29
20,35
21,24
21,28
21,30
22,27
22,49
23,32
24,33
25,31
26,34
27,43
28,35
29,36
30,35
31,37
32,39
33,38
34,40
35,41
35,43
36,41
36,42
37,46
38,46
39,44
40,45
41,47
42,48
42,49
43,50

<end>
